p cnf 13 49
2 -4 8 0
4 7 8 0
1 -3 -6 0
-3 -8 -11 0
2 3 13 0
-1 -4 -11 0
-1 -6 -8 0
1 4 -11 0
-4 7 -9 0
-5 8 9 0
4 7 10 0
-4 5 9 0
1 5 13 0
5 7 -9 0
1 -3 -12 0
9 -10 -13 0
3 4 -7 0
-4 -5 7 0
-7 -11 12 0
-7 -9 -13 0
4 9 -12 0
1 2 -10 0
-5 -10 -11 0
-5 12 -13 0
-4 7 13 0
2 7 11 0
1 -6 -9 0
-4 7 9 0
2 5 -7 0
-4 6 -7 0
4 9 11 0
-2 5 13 0
5 12 -13 0
-3 4 8 0
-4 -5 -7 0
-1 5 6 0
-3 -5 11 0
2 3 5 0
-7 -8 13 0
5 8 13 0
1 2 -7 0
7 12 13 0
-4 -6 10 0
7 -9 12 0
3 -4 12 0
-3 11 -13 0
-3 6 13 0
4 9 -11 0
3 -4 6 0
